NAME : LR2_6_8
TYPE : PDPTW
DIMENSION : 150
EDGE_WEIGHT_TYPE : EXACT_2D
NODE_COORD_SECTION
1 1 0
2 150 0
3 0 0
4 16 4210
5 456 2
6 0 4646
7 3 284
8 4650 10
9 38 139
10 10 0
11 178 -16
12 46 0
13 -17 0
14 0 7
15 0 4711
16 8 175
17 4709 10
18 45 115
19 10 492
20 203 5
21 0 537
22 -13 0
23 0 12
24 0 4635
25 13 274
26 4623 10
27 232 121
28 10 0
29 83 -12
30 126 0
31 -18 608
32 0 17
33 0 4743
34 18 61
35 4703 10
36 80 35
37 10 0
38 135 -7
39 424 0
40 -10 0
41 0 22
42 2000 2240
43 23 102
44 4760 10
45 276 28
46 10 385
47 179 -10
48 255 0
49 -16 0
50 0 27
51 0 4731
52 28 61
53 4724 10
54 283 144
55 10 0
56 232 -18
57 352 0
58 -16 2362
59 0 32
60 2227 2467
61 33 176
62 4698 10
63 117 168
64 10 310
65 102 -29
66 104 0
67 10 0
68 45 37
69 0 4661
70 38 29
71 3184 10
72 136 241
73 10 462
74 42 -5
75 587 0
76 42 0
77 239 42
78 0 4664
79 43 136
80 2557 10
81 230 80
82 10 0
83 172 -10
84 36 0
85 16 0
86 5 47
87 0 4663
88 48 72
89 4662 10
90 57 125
91 10 23
92 47 6
93 0 328
94 21 0
95 573 52
96 0 4713
97 53 220
98 2664 10
99 191 234
100 10 345
101 40 22
102 0 371
103 13 0
104 509 57
105 0 4698
106 58 272
107 4677 10
108 56 116
109 10 0
110 93 39
111 0 98
112 24 0
113 33 62
114 2695 2935
115 63 208
116 4662 10
117 285 283
118 10 0
119 37 -19
120 588 0
121 19 0
122 285 67
123 0 4692
124 68 37
125 4700 10
126 201 175
127 10 516
128 155 11
129 0 556
130 -10 0
131 0 72
132 0 4666
133 73 279
134 4641 10
135 46 155
136 10 579
137 178 -22
138 59 0
139 -5 0
140 0 77
141 2544 2784
142 78 268
143 3551 10
144 207 149
145 10 14
146 123 4
147 0 370
148 -6 0
149 0 82
150 0 4725
PICKUP_AND_DELIVERY_SECTION
1 0 0 0 0 0 0
2 0 0 0 0 4823 0
3 0 0 0 0 0 133
4 0 0 0 0 10 10
5 0 0 0 0 41 41
6 0 0 0 0 90 90
7 0 0 0 0 12 12
8 0 0 0 0 489 0
9 0 0 0 0 0 0
10 0 0 0 0 5 5
11 0 0 0 0 3244 3244
12 0 0 0 0 241 241
13 0 0 0 0 10 10
14 0 0 0 0 221 221
15 0 0 0 0 135 135
16 0 0 0 0 8 8
17 0 0 0 0 324 0
18 0 0 0 0 0 0
19 0 0 0 0 10 0
20 0 0 0 0 4729 0
21 0 0 0 0 178 178
22 0 0 0 0 10 10
23 0 0 0 0 2 2
24 0 0 0 0 0 0
25 0 0 0 0 41 41
26 0 0 0 0 440 0
27 0 0 0 0 0 0
28 0 0 0 0 15 15
29 0 0 0 0 4735 0
30 0 0 0 0 275 275
31 0 0 0 0 10 10
32 0 0 0 0 211 211
33 0 0 0 0 320 320
34 0 0 0 0 7 7
35 0 0 0 0 184 0
36 0 0 0 0 2000 2000
37 0 0 0 0 20 20
38 0 0 0 0 4665 0
39 0 0 0 0 60 60
40 0 0 0 0 10 10
41 0 0 0 0 127 127
42 0 0 0 0 577 577
43 0 0 0 0 15 15
44 0 0 0 0 49 0
45 0 0 0 0 0 0
46 0 0 0 0 25 0
47 0 0 0 0 4781 0
48 0 0 0 0 289 289
49 0 0 0 0 10 10
50 0 0 0 0 134 134
51 0 0 0 0 0 0
52 0 0 0 0 9 9
53 0 0 0 0 289 0
54 0 0 0 0 413 413
55 0 0 0 0 30 30
56 0 0 0 0 4716 0
57 0 0 0 0 120 120
58 0 0 0 0 10 10
59 0 0 0 0 64 64
60 0 0 0 0 410 410
61 0 0 0 0 -24 -24
62 0 0 0 0 0 0
63 0 0 0 0 0 0
64 0 0 0 0 35 0
65 0 0 0 0 4371 4371
66 0 0 0 0 157 157
67 0 0 0 0 10 10
68 0 0 0 0 3 3
69 0 0 0 0 0 0
70 0 0 0 0 -29 -29
71 0 0 0 0 0 0
72 0 0 0 0 1426 1426
73 0 0 0 0 40 0
74 0 0 0 0 1190 1190
75 0 0 0 0 183 183
76 0 0 0 0 10 10
77 0 0 0 0 299 299
78 0 0 0 0 235 235
79 0 0 0 0 -24 -24
80 0 0 0 0 0 0
81 0 0 0 0 0 0
82 0 0 0 0 45 45
83 0 0 0 0 4791 0
84 0 0 0 0 136 136
85 0 0 0 0 10 10
86 0 0 0 0 200 200
87 0 0 0 0 0 0
88 0 0 0 0 32 32
89 0 0 0 0 252 0
90 0 0 0 0 0 0
91 0 0 0 0 50 0
92 0 0 0 0 4695 0
93 0 0 0 0 262 262
94 0 0 0 0 10 10
95 0 0 0 0 250 250
96 0 0 0 0 177 177
97 0 0 0 0 -13 -13
98 0 0 0 0 0 0
99 0 0 0 0 0 0
100 0 0 0 0 55 0
101 0 0 0 0 4697 0
102 0 0 0 0 227 227
103 0 0 0 0 10 10
104 0 0 0 0 141 141
105 0 0 0 0 262 262
106 0 0 0 0 -26 -26
107 0 0 0 0 0 0
108 0 0 0 0 859 859
109 0 0 0 0 60 60
110 0 0 0 0 2082 2082
111 0 0 0 0 120 120
112 0 0 0 0 10 10
113 0 0 0 0 119 119
114 0 0 0 0 423 423
115 0 0 0 0 -21 -21
116 0 0 0 0 0 0
117 0 0 0 0 2154 2154
118 0 0 0 0 65 65
119 0 0 0 0 3445 3445
120 0 0 0 0 180 180
121 0 0 0 0 10 10
122 0 0 0 0 139 139
123 0 0 0 0 0 0
124 0 0 0 0 7 7
125 0 0 0 0 363 0
126 0 0 0 0 0 0
127 0 0 0 0 70 0
128 0 0 0 0 4791 0
129 0 0 0 0 94 94
130 0 0 0 0 10 10
131 0 0 0 0 135 135
132 0 0 0 0 512 512
133 0 0 0 0 -23 -23
134 0 0 0 0 0 0
135 0 0 0 0 0 0
136 0 0 0 0 75 0
137 0 0 0 0 4676 0
138 0 0 0 0 15 15
139 0 0 0 0 10 10
140 0 0 0 0 146 146
141 0 0 0 0 192 192
142 0 0 0 0 22 22
143 0 0 0 0 359 0
144 0 0 0 0 0 0
145 0 0 0 0 80 0
146 0 0 0 0 279 279
147 0 0 0 0 103 103
148 0 0 0 0 10 10
149 0 0 0 0 235 235
150 0 0 0 0 105 105
DEPOT_SECTION
1 
-1
EOF
